193
0 72 48 131 137 65 142 6 113 130 
37 192 163 103 172 88 85 32 147 146 
11 167 123 41 153 122 35 94 77 40 
66 43 177 1 79 21 157 76 17 12 
132 187 3 114 73 84 16 104 156 178 
169 183 7 120 60 63 62 133 28 134 
68 91 49 75 164 190 171 148 101 116 
159 53 118 90 39 126 119 31 182 188 
128 181 174 110 166 74 87 180 98 100 
161 2 149 52 42 135 97 176 108 96 
71 140 106 162 61 184 18 15 82 127 
23 141 44 69 152 13 78 47 5 144 
59 89 19 124 191 150 83 109 129 14 
10 105 33 115 9 25 24 173 38 151 
81 64 186 136 26 67 168 121 51 20 
55 175 158 22 95 93 111 155 46 160 
58 45 143 57 99 102 29 56 125 107 
27 117 54 165 8 138 80 34 179 4 
139 50 36 112 70 86 170 189 92 185 
154 30 145 
